dates = {'2022-02-02','2022-02-03','2022-02-04','2022-02-05','2022-02-06','2022-02-07','2022-02-08','2022-02-09','2022-02-10','2022-02-11'};

daysOfWeek = [Wednesday,Thursday,Friday,Saturday,Sunday,Monday,Tuesday,Wednesday,Thursday,Friday];

% For this week, how many people will be here.
numPeople = [160,155,158,158,158,154,156,156,156,156];

% Physical workers need 50 to 100 % more nutrients per day.
numPhysicalWorkers = [54.0,54.0,53.0,53.0,53.0,53.0,51.5,51.5,51.5,51.5];

% Males need +25% more nutrients per day.
numMen = [132,132,132,132,132,132,128,128,128,128];

% Num people who do not eat categories. contains = {none, meat, milk, gluten, egg, nut, seed, sugars}
numRefusals = [| 0,8,0,0,0,0,0,0 | 0,0,2,0,0,8,0,0 | 0,9,0,9,8,11,0,5 | 0,9,0,9,8,11,0,5 | 0,9,0,9,8,11,0,5 | 0,2,5,6,5,6,0,0 | 0,0,0,6,0,14,1,10 | 0,0,0,6,0,14,1,10 | 0,0,0,6,0,14,1,10 | 0,0,0,6,0,14,1,10 |];

